0 6 2 6 5 7 7 2 4 3 4 8 1 2
6 0 3 6 9 9 2 3 2 4 3 6 4 4
2 3 0 6 5 1 3 3 3 2 9 9 2 9
6 6 6 0 3 7 3 5 1 9 3 8 1 4
5 9 5 3 0 2 6 8 8 1 6 8 2 1
7 9 1 7 2 0 7 2 8 8 9 6 9 2
7 2 3 3 6 7 0 9 2 6 6 6 6 3
2 3 3 5 8 2 9 0 2 6 4 3 3 1
4 2 3 1 8 8 2 2 0 7 8 8 6 3
3 4 2 9 1 8 6 6 7 0 1 7 2 3
4 3 9 3 6 9 6 4 8 1 0 3 5 9
8 6 9 8 8 6 6 3 8 7 3 0 9 8
1 4 2 1 2 9 6 3 6 2 5 9 0 4
2 4 9 4 1 2 3 1 3 3 9 8 4 0
